400 1583 
1 5 1
1 6 1
1 7 1
1 8 1
1 10 1
1 11 1
1 14 1
1 15 1
1 19 1
1 21 1
1 23 1
1 31 1
1 40 1
1 42 1
1 45 1
1 46 1
1 59 1
1 60 1
1 64 1
1 65 1
1 71 1
1 72 1
1 80 1
1 81 1
1 86 1
1 100 1
1 101 1
1 116 1
1 119 1
1 125 1
1 139 1
1 150 1
1 151 1
1 153 1
1 158 1
1 159 1
1 192 1
1 203 1
1 205 1
1 212 1
1 224 1
1 235 1
1 258 1
1 288 1
1 311 1
1 312 1
1 337 1
1 346 1
1 357 1
1 379 1
1 389 1
1 391 1
2 5 1
2 6 1
2 8 1
2 16 1
2 18 1
2 24 1
2 30 1
2 48 1
2 53 1
2 132 1
2 133 1
2 201 1
2 207 1
2 211 1
2 214 1
2 219 1
2 225 1
2 281 1
2 394 1
3 5 1
3 6 1
3 7 1
3 9 1
3 13 1
3 15 1
3 16 1
3 17 1
3 20 1
3 22 1
3 24 1
3 25 1
3 26 1
3 30 1
3 31 1
3 35 1
3 39 1
3 45 1
3 50 1
3 52 1
3 65 1
3 70 1
3 76 1
3 77 1
3 84 1
3 85 1
3 91 1
3 93 1
3 98 1
3 102 1
3 109 1
3 111 1
3 112 1
3 118 1
3 120 1
3 129 1
3 139 1
3 141 1
3 150 1
3 154 1
3 156 1
3 157 1
3 160 1
3 168 1
3 180 1
3 181 1
3 184 1
3 185 1
3 186 1
3 194 1
3 217 1
3 228 1
3 237 1
3 256 1
3 267 1
3 272 1
3 279 1
3 299 1
3 300 1
3 308 1
3 316 1
3 319 1
3 323 1
3 324 1
3 339 1
3 348 1
3 354 1
3 371 1
3 394 1
4 5 1
4 11 1
4 12 1
4 13 1
4 16 1
4 17 1
4 18 1
4 27 1
4 34 1
4 35 1
4 37 1
4 47 1
4 50 1
4 63 1
4 64 1
4 66 1
4 70 1
4 81 1
4 88 1
4 90 1
4 91 1
4 101 1
4 119 1
4 123 1
4 127 1
4 135 1
4 141 1
4 158 1
4 176 1
4 196 1
4 242 1
4 254 1
4 256 1
4 259 1
4 271 1
4 286 1
4 328 1
4 329 1
5 6 1
5 7 1
5 8 1
5 9 1
5 10 1
5 11 1
5 16 1
5 19 1
5 21 1
5 23 1
5 24 1
5 26 1
5 29 1
5 37 1
5 40 1
5 45 1
5 46 1
5 55 1
5 58 1
5 61 1
5 62 1
5 64 1
5 69 1
5 70 1
5 72 1
5 75 1
5 77 1
5 80 1
5 81 1
5 82 1
5 89 1
5 92 1
5 93 1
5 94 1
5 98 1
5 106 1
5 107 1
5 109 1
5 126 1
5 142 1
5 146 1
5 151 1
5 162 1
5 163 1
5 166 1
5 173 1
5 176 1
5 184 1
5 202 1
5 204 1
5 210 1
5 211 1
5 212 1
5 236 1
5 237 1
5 245 1
5 260 1
5 263 1
5 266 1
5 270 1
5 275 1
5 292 1
5 312 1
5 314 1
5 328 1
5 337 1
5 343 1
5 344 1
5 347 1
5 349 1
5 361 1
5 366 1
5 370 1
5 377 1
5 379 1
5 382 1
5 384 1
5 399 1
6 7 1
6 8 1
6 9 1
6 12 1
6 15 1
6 19 1
6 26 1
6 27 1
6 28 1
6 34 1
6 38 1
6 39 1
6 44 1
6 48 1
6 52 1
6 56 1
6 69 1
6 72 1
6 78 1
6 79 1
6 87 1
6 89 1
6 108 1
6 110 1
6 121 1
6 127 1
6 131 1
6 139 1
6 144 1
6 147 1
6 157 1
6 160 1
6 167 1
6 180 1
6 183 1
6 188 1
6 205 1
6 216 1
6 221 1
6 227 1
6 234 1
6 277 1
6 295 1
6 316 1
6 319 1
6 320 1
6 350 1
6 374 1
6 383 1
6 384 1
7 9 1
7 11 1
7 12 1
7 21 1
7 22 1
7 32 1
7 44 1
7 51 1
7 53 1
7 56 1
7 59 1
7 66 1
7 75 1
7 111 1
7 123 1
7 130 1
7 134 1
7 135 1
7 162 1
7 169 1
7 172 1
7 174 1
7 186 1
7 209 1
7 246 1
7 253 1
7 259 1
7 276 1
7 308 1
7 317 1
7 321 1
7 340 1
7 344 1
7 352 1
7 353 1
7 365 1
7 380 1
8 10 1
8 12 1
8 17 1
8 18 1
8 40 1
8 47 1
8 52 1
8 62 1
8 74 1
8 105 1
8 107 1
8 109 1
8 111 1
8 124 1
8 136 1
8 182 1
8 254 1
8 313 1
8 381 1
9 10 1
9 13 1
9 14 1
9 15 1
9 30 1
9 36 1
9 46 1
9 68 1
9 104 1
9 106 1
9 117 1
9 119 1
9 124 1
9 129 1
9 170 1
9 175 1
9 190 1
9 193 1
9 197 1
9 219 1
9 321 1
9 325 1
10 13 1
10 14 1
10 42 1
10 61 1
10 65 1
10 82 1
10 113 1
10 118 1
10 122 1
10 154 1
10 185 1
10 193 1
10 215 1
10 218 1
10 229 1
11 14 1
11 19 1
11 23 1
11 27 1
11 28 1
11 58 1
11 71 1
11 93 1
11 121 1
11 123 1
11 130 1
11 152 1
11 158 1
11 162 1
11 165 1
11 172 1
11 179 1
11 210 1
11 228 1
11 230 1
11 240 1
11 253 1
11 277 1
11 285 1
11 290 1
11 294 1
11 330 1
11 331 1
11 347 1
11 363 1
11 380 1
12 18 1
12 20 1
12 63 1
12 77 1
12 79 1
12 82 1
12 88 1
12 115 1
12 117 1
12 125 1
12 127 1
12 131 1
12 142 1
12 164 1
12 212 1
12 245 1
12 248 1
12 374 1
13 20 1
13 25 1
13 37 1
13 40 1
13 66 1
13 85 1
13 112 1
13 143 1
13 164 1
13 170 1
13 190 1
13 198 1
13 326 1
14 20 1
14 46 1
14 47 1
14 53 1
14 140 1
14 156 1
14 171 1
14 227 1
14 259 1
14 345 1
15 43 1
15 57 1
15 78 1
15 80 1
15 87 1
15 95 1
15 99 1
15 195 1
15 242 1
15 350 1
15 393 1
15 397 1
16 17 1
16 21 1
16 23 1
16 33 1
16 49 1
16 55 1
16 62 1
16 74 1
16 78 1
16 96 1
16 105 1
16 118 1
16 165 1
16 191 1
16 196 1
16 208 1
16 221 1
16 244 1
16 247 1
16 265 1
16 270 1
16 288 1
16 310 1
16 312 1
16 318 1
16 325 1
16 380 1
17 35 1
17 38 1
17 51 1
17 67 1
17 76 1
17 88 1
17 105 1
17 198 1
17 211 1
17 232 1
17 299 1
17 360 1
17 388 1
18 22 1
18 26 1
18 29 1
18 34 1
18 38 1
18 42 1
18 49 1
18 58 1
18 110 1
18 180 1
18 187 1
18 190 1
18 205 1
18 287 1
18 313 1
18 318 1
18 325 1
19 179 1
20 28 1
20 29 1
20 33 1
20 36 1
20 37 1
20 41 1
20 43 1
20 45 1
20 54 1
20 68 1
20 95 1
20 100 1
20 105 1
20 114 1
20 143 1
20 146 1
20 176 1
20 177 1
20 182 1
20 189 1
20 199 1
20 202 1
20 220 1
20 275 1
20 278 1
20 280 1
20 290 1
20 293 1
20 305 1
20 347 1
20 362 1
20 376 1
20 389 1
20 396 1
21 22 1
21 31 1
21 33 1
21 36 1
21 53 1
21 71 1
21 74 1
21 89 1
21 178 1
21 199 1
21 213 1
21 306 1
21 311 1
21 321 1
21 351 1
21 368 1
21 375 1
21 386 1
22 42 1
22 55 1
22 68 1
22 75 1
22 85 1
22 97 1
22 103 1
22 122 1
22 142 1
22 166 1
22 198 1
22 249 1
22 273 1
22 320 1
23 24 1
23 25 1
23 27 1
23 29 1
23 32 1
23 39 1
23 43 1
23 48 1
23 50 1
23 51 1
23 58 1
23 60 1
23 64 1
23 112 1
23 124 1
23 137 1
23 145 1
23 150 1
23 159 1
23 161 1
23 170 1
23 181 1
23 203 1
23 232 1
23 253 1
23 258 1
23 295 1
23 310 1
23 327 1
23 332 1
23 344 1
23 360 1
23 368 1
23 377 1
23 386 1
23 396 1
23 397 1
24 25 1
24 35 1
24 44 1
24 55 1
24 87 1
24 120 1
24 132 1
24 159 1
24 168 1
24 270 1
24 379 1
24 391 1
24 395 1
25 31 1
25 146 1
25 304 1
25 365 1
25 396 1
26 28 1
26 337 1
27 32 1
27 33 1
27 41 1
27 54 1
27 57 1
27 83 1
27 97 1
27 110 1
27 130 1
27 138 1
27 165 1
27 184 1
27 203 1
27 222 1
27 234 1
27 236 1
27 270 1
27 317 1
27 343 1
27 359 1
27 372 1
27 385 1
28 32 1
28 36 1
28 41 1
28 66 1
28 80 1
28 91 1
28 96 1
28 135 1
28 145 1
28 160 1
28 161 1
28 173 1
28 181 1
28 192 1
28 200 1
28 209 1
28 243 1
28 264 1
28 297 1
28 299 1
28 301 1
28 311 1
28 314 1
28 338 1
28 367 1
28 368 1
28 371 1
28 372 1
28 388 1
28 389 1
29 30 1
29 54 1
29 68 1
29 110 1
29 152 1
29 180 1
29 190 1
29 278 1
29 289 1
29 339 1
29 400 1
30 48 1
30 65 1
30 103 1
30 114 1
30 115 1
30 174 1
30 178 1
30 204 1
30 342 1
30 393 1
31 34 1
31 39 1
31 234 1
32 90 1
32 122 1
33 38 1
33 49 1
33 60 1
33 70 1
33 144 1
33 166 1
33 213 1
33 214 1
33 220 1
33 225 1
33 263 1
33 294 1
33 317 1
33 356 1
33 392 1
34 67 1
34 182 1
34 187 1
34 319 1
35 49 1
35 74 1
35 104 1
35 133 1
35 316 1
35 370 1
36 41 1
36 61 1
36 96 1
36 99 1
36 104 1
36 147 1
36 148 1
36 182 1
36 195 1
36 197 1
36 209 1
36 226 1
36 251 1
36 255 1
36 272 1
36 307 1
37 54 1
37 98 1
37 109 1
37 127 1
37 281 1
37 290 1
37 292 1
37 331 1
38 43 1
38 95 1
38 156 1
38 195 1
38 366 1
39 61 1
39 71 1
39 95 1
39 178 1
40 44 1
40 57 1
40 81 1
40 84 1
40 87 1
40 120 1
40 134 1
40 142 1
40 147 1
40 170 1
40 262 1
40 269 1
40 287 1
40 319 1
40 369 1
40 373 1
41 56 1
41 63 1
41 69 1
41 171 1
41 189 1
41 197 1
41 222 1
41 275 1
41 278 1
41 357 1
42 59 1
42 90 1
42 129 1
42 155 1
42 223 1
42 281 1
43 79 1
43 83 1
43 172 1
43 273 1
43 302 1
43 355 1
44 59 1
44 73 1
44 99 1
44 119 1
44 139 1
44 145 1
44 194 1
44 217 1
44 224 1
44 231 1
44 376 1
45 47 1
45 52 1
45 60 1
45 62 1
45 67 1
45 140 1
45 193 1
45 230 1
45 295 1
45 305 1
45 349 1
46 93 1
46 114 1
46 121 1
46 252 1
46 323 1
46 340 1
46 374 1
47 73 1
47 82 1
47 163 1
47 227 1
48 50 1
48 57 1
48 67 1
48 77 1
48 138 1
48 158 1
48 168 1
48 191 1
48 216 1
48 248 1
48 272 1
48 285 1
48 291 1
48 315 1
48 358 1
48 364 1
49 51 1
49 96 1
49 277 1
49 361 1
50 56 1
50 69 1
50 97 1
50 157 1
50 199 1
50 239 1
50 250 1
50 280 1
50 286 1
50 307 1
50 338 1
50 398 1
51 98 1
51 135 1
51 136 1
51 167 1
51 177 1
51 219 1
51 227 1
51 238 1
51 247 1
51 310 1
51 344 1
51 364 1
51 400 1
52 89 1
52 285 1
52 348 1
52 350 1
52 375 1
52 385 1
53 63 1
53 97 1
53 99 1
53 131 1
53 143 1
53 179 1
53 256 1
53 260 1
53 283 1
53 291 1
53 293 1
53 330 1
53 365 1
53 395 1
54 123 1
54 369 1
55 75 1
55 167 1
55 187 1
55 228 1
55 255 1
55 266 1
55 280 1
55 306 1
55 349 1
55 400 1
56 84 1
56 94 1
56 230 1
56 339 1
57 128 1
57 169 1
57 194 1
58 79 1
58 130 1
58 171 1
58 305 1
59 107 1
59 108 1
59 276 1
60 343 1
60 371 1
61 73 1
61 76 1
61 86 1
61 92 1
61 133 1
61 144 1
61 153 1
61 185 1
61 231 1
61 252 1
61 262 1
61 276 1
61 285 1
61 321 1
61 361 1
61 367 1
62 118 1
62 161 1
62 188 1
62 213 1
62 390 1
63 90 1
63 103 1
63 220 1
63 232 1
63 289 1
63 341 1
64 116 1
64 128 1
64 152 1
64 154 1
65 72 1
65 101 1
65 102 1
65 132 1
65 262 1
65 366 1
66 86 1
66 125 1
66 151 1
66 201 1
66 233 1
66 251 1
66 322 1
66 356 1
67 121 1
67 165 1
67 251 1
68 73 1
68 78 1
68 83 1
68 100 1
68 107 1
68 117 1
68 128 1
68 140 1
68 149 1
68 169 1
68 226 1
68 228 1
68 243 1
68 274 1
68 282 1
68 287 1
69 84 1
69 91 1
69 246 1
69 257 1
69 265 1
69 335 1
69 356 1
70 85 1
70 223 1
70 303 1
71 136 1
71 233 1
71 302 1
71 396 1
72 94 1
72 108 1
72 210 1
72 332 1
72 333 1
72 341 1
72 353 1
73 76 1
73 104 1
73 177 1
73 231 1
74 108 1
74 144 1
74 148 1
74 243 1
74 351 1
75 294 1
75 373 1
76 92 1
76 133 1
76 201 1
76 255 1
76 318 1
76 322 1
76 362 1
76 390 1
77 86 1
77 134 1
78 83 1
78 173 1
78 267 1
78 346 1
79 134 1
79 143 1
79 153 1
79 216 1
79 245 1
79 249 1
79 258 1
79 320 1
79 367 1
79 388 1
80 102 1
80 159 1
80 174 1
80 224 1
80 242 1
81 249 1
81 261 1
81 272 1
81 352 1
82 88 1
82 113 1
82 117 1
82 138 1
82 217 1
83 136 1
83 226 1
83 241 1
83 291 1
83 327 1
84 111 1
84 147 1
84 183 1
84 303 1
84 313 1
84 398 1
85 175 1
85 188 1
85 268 1
85 325 1
86 92 1
86 126 1
86 128 1
86 187 1
86 260 1
86 297 1
86 352 1
86 362 1
86 366 1
87 120 1
87 215 1
87 310 1
88 283 1
88 335 1
90 113 1
90 125 1
90 155 1
90 178 1
90 222 1
90 332 1
90 348 1
90 353 1
91 94 1
91 100 1
91 131 1
91 210 1
91 233 1
91 239 1
91 256 1
91 279 1
91 353 1
91 355 1
91 358 1
91 365 1
92 341 1
93 205 1
93 371 1
94 112 1
94 164 1
94 186 1
94 188 1
94 248 1
94 253 1
94 293 1
95 101 1
95 103 1
95 171 1
95 183 1
95 250 1
95 277 1
95 323 1
96 163 1
97 115 1
97 124 1
97 141 1
97 149 1
97 179 1
97 207 1
97 214 1
97 258 1
97 298 1
97 360 1
98 177 1
98 192 1
98 282 1
98 312 1
99 106 1
99 129 1
99 152 1
99 162 1
99 257 1
99 261 1
99 299 1
99 336 1
100 113 1
100 115 1
100 149 1
100 202 1
100 238 1
100 274 1
100 284 1
100 287 1
100 305 1
100 326 1
100 390 1
101 106 1
101 126 1
101 150 1
101 155 1
101 191 1
101 336 1
102 203 1
103 229 1
103 244 1
104 141 1
104 355 1
104 383 1
105 148 1
105 175 1
105 327 1
106 204 1
106 221 1
106 233 1
107 153 1
107 173 1
107 222 1
107 262 1
107 264 1
107 281 1
107 286 1
107 296 1
107 329 1
107 330 1
108 248 1
109 116 1
109 137 1
109 148 1
109 350 1
109 382 1
110 116 1
110 122 1
110 240 1
110 247 1
110 249 1
110 318 1
110 326 1
110 370 1
111 154 1
111 164 1
111 206 1
111 273 1
111 279 1
111 346 1
113 114 1
113 156 1
113 206 1
113 216 1
113 261 1
113 290 1
113 303 1
113 359 1
114 126 1
114 132 1
114 189 1
114 200 1
114 208 1
114 237 1
114 252 1
114 357 1
115 195 1
115 198 1
115 200 1
115 214 1
115 354 1
115 390 1
116 246 1
116 307 1
117 155 1
117 172 1
117 238 1
117 274 1
118 168 1
118 192 1
119 218 1
119 235 1
119 296 1
119 364 1
119 398 1
120 283 1
121 140 1
121 194 1
121 226 1
121 373 1
121 381 1
122 146 1
122 193 1
122 314 1
122 368 1
123 218 1
123 288 1
124 137 1
125 211 1
125 225 1
125 354 1
125 357 1
126 160 1
126 229 1
127 138 1
127 236 1
127 238 1
127 297 1
127 309 1
127 385 1
128 271 1
129 223 1
130 145 1
130 151 1
130 176 1
130 252 1
130 265 1
130 276 1
130 334 1
131 157 1
131 208 1
131 244 1
131 250 1
131 301 1
131 333 1
131 336 1
132 185 1
132 218 1
132 298 1
133 201 1
133 254 1
133 322 1
133 397 1
134 209 1
134 295 1
134 300 1
134 302 1
134 328 1
134 378 1
135 137 1
135 224 1
135 333 1
135 345 1
136 301 1
136 351 1
138 167 1
138 215 1
138 274 1
138 334 1
138 372 1
139 340 1
139 375 1
140 264 1
140 266 1
140 383 1
141 383 1
142 202 1
142 304 1
143 149 1
143 161 1
143 199 1
143 241 1
143 259 1
143 306 1
144 207 1
144 284 1
144 327 1
144 369 1
144 376 1
145 394 1
146 314 1
146 345 1
147 309 1
148 166 1
148 196 1
148 269 1
148 358 1
148 386 1
150 204 1
150 208 1
150 263 1
150 304 1
151 207 1
152 215 1
153 239 1
153 363 1
153 377 1
153 387 1
154 196 1
154 206 1
154 242 1
155 254 1
156 212 1
156 223 1
156 284 1
156 347 1
156 359 1
156 376 1
157 183 1
157 234 1
157 264 1
157 268 1
157 309 1
157 377 1
158 197 1
159 163 1
159 181 1
159 278 1
161 169 1
161 241 1
161 243 1
162 257 1
163 271 1
163 346 1
164 175 1
164 200 1
166 397 1
167 174 1
167 189 1
167 334 1
169 271 1
170 351 1
171 231 1
171 237 1
171 342 1
173 337 1
174 186 1
174 335 1
176 191 1
176 213 1
177 370 1
178 235 1
178 251 1
178 303 1
178 307 1
179 308 1
179 333 1
180 326 1
181 240 1
182 220 1
182 240 1
182 244 1
182 387 1
182 388 1
183 184 1
183 225 1
184 375 1
186 293 1
187 392 1
189 289 1
190 294 1
191 282 1
191 391 1
192 296 1
193 267 1
193 309 1
194 230 1
194 358 1
194 382 1
195 261 1
195 300 1
195 330 1
196 257 1
196 268 1
196 286 1
196 297 1
197 241 1
197 359 1
197 394 1
198 206 1
198 302 1
200 239 1
200 273 1
200 320 1
200 334 1
201 255 1
202 266 1
203 304 1
203 399 1
204 260 1
205 284 1
206 267 1
206 315 1
206 361 1
207 217 1
207 342 1
207 362 1
208 235 1
208 280 1
208 364 1
208 382 1
210 395 1
214 221 1
214 328 1
214 399 1
215 219 1
216 232 1
216 269 1
216 289 1
216 372 1
220 296 1
220 392 1
221 246 1
221 279 1
223 345 1
223 363 1
225 263 1
226 229 1
228 265 1
228 301 1
228 399 1
230 311 1
232 379 1
232 387 1
234 236 1
234 363 1
238 247 1
239 245 1
240 300 1
240 398 1
242 275 1
242 393 1
244 269 1
245 250 1
245 322 1
245 381 1
246 356 1
247 268 1
248 331 1
249 329 1
250 373 1
251 283 1
252 324 1
253 340 1
255 386 1
258 384 1
258 392 1
259 339 1
260 343 1
262 292 1
264 332 1
264 395 1
269 298 1
271 323 1
273 374 1
275 355 1
276 338 1
277 342 1
280 282 1
281 315 1
282 324 1
282 381 1
283 288 1
284 378 1
286 298 1
286 349 1
287 313 1
288 291 1
288 306 1
288 384 1
290 292 1
292 329 1
298 308 1
298 324 1
300 369 1
301 317 1
305 316 1
305 393 1
310 354 1
310 380 1
312 315 1
312 336 1
314 335 1
320 367 1
322 387 1
326 331 1
326 341 1
328 348 1
328 378 1
329 352 1
330 360 1
331 338 1
340 378 1
349 389 1
350 385 1
352 400 1
363 391 1
